Maximize
  40 x_beam_bridges + 60 x_truss_bridges
Subject To
  c1: 30 x_beam_bridges + 50 x_truss_bridges <= 600
  c2: 5 x_beam_bridges + 8 x_truss_bridges <= 100
  c3: x_truss_bridges <= 5
  c4: x_beam_bridges - x_truss_bridges >= 0
End